NAME : U-P-n55-k15.944557.tour
COMMENT : Cost = 0_944557
COMMENT : Found by LKH [Keld Helsgaun] Wed Sep 13 14:36:02 2017
TYPE : TOUR
DIMENSION : 70
TOUR_SECTION
1
5
56
24
42
43
44
2
60
52
4
45
33
69
28
14
55
20
36
70
54
15
9
68
3
29
23
67
51
19
25
50
59
40
11
39
58
35
53
47
61
10
26
32
66
31
49
46
64
17
34
7
57
18
41
13
62
30
16
21
38
37
63
6
48
22
65
8
12
27
-1
EOF
